 Mg S
   1.0
     5.1462001525474790    0.0000000000000000    0.0000000000000000
     0.0000000000000000    5.1462001525474790    0.0000000000000000
     0.0000000000000000    0.0000000000000000    5.1462001525474790
 Mg S
   4   4
Direct
   0.0000000000000000  0.0000000000000000  0.0000000000000000
   0.0000000000000000  0.5000000000000000  0.5000000000000000
   0.5000000000000000  0.0000000000000000  0.5000000000000000
   0.5000000000000000  0.5000000000000000  0.0000000000000000
   0.5000000000000000  0.0000000000000000  0.0000000000000000
   0.5000000000000000  0.5000000000000000  0.5000000000000000
   0.0000000000000000  0.0000000000000000  0.5000000000000000
   0.0000000000000000  0.5000000000000000  0.0000000000000000