 Na Se
   1.0
     6.7718762200000002    0.0000000000000000    0.0000000000000000
     0.0000000000000000    6.7718762200000002    0.0000000000000000
     0.0000000000000000    0.0000000000000000    6.7718762200000002
 Na Se
   8   4
Direct
   0.2500000000000000  0.2500000000000000  0.2500000000000000
   0.2500000000000000  0.2500000000000000  0.7500000000000000
   0.2500000000000000  0.7500000000000000  0.7500000000000000
   0.2500000000000000  0.7500000000000000  0.2500000000000000
   0.7500000000000000  0.2500000000000000  0.7500000000000000
   0.7500000000000000  0.2500000000000000  0.2500000000000000
   0.7500000000000000  0.7500000000000000  0.2500000000000000
   0.7500000000000000  0.7500000000000000  0.7500000000000000
   0.0000000000000000  0.0000000000000000  0.0000000000000000
   0.0000000000000000  0.5000000000000000  0.5000000000000000
   0.5000000000000000  0.0000000000000000  0.5000000000000000
   0.5000000000000000  0.5000000000000000  0.0000000000000000