 Mg S
   1.0
     5.1817512900000002    0.0000000000000000    0.0000000000000000
     0.0000000000000000    5.1817512900000002    0.0000000000000000
     0.0000000000000000    0.0000000000000000    5.1817512900000002
 Mg S
   4   4
Direct
   0.0000000000000000  0.0000000000000000  0.0000000000000000
   0.0000000000000000  0.5000000000000000  0.5000000000000000
   0.5000000000000000  0.0000000000000000  0.5000000000000000
   0.5000000000000000  0.5000000000000000  0.0000000000000000
   0.5000000000000000  0.0000000000000000  0.0000000000000000
   0.5000000000000000  0.5000000000000000  0.5000000000000000
   0.0000000000000000  0.0000000000000000  0.5000000000000000
   0.0000000000000000  0.5000000000000000  0.0000000000000000