Automatic mesh
0
Gamma
     4     3     3
 0.000 0.000 0.000
