Automatic mesh
0
Gamma
     4     3     4
 0.000 0.000 0.000
