 O Lu Ta
   1.0
     5.0260294700000001    0.0000000000000000   -0.1225459100000000
     0.0000000000000000    5.3303912999999996    0.0000000000000000
    -0.4346270500000000    0.0000000000000000    5.1806685999999997
 O Lu Ta
   8   2   2
Direct
   0.7379508600000000  0.4391870900000000  0.0078305100000000
   0.2620491400000000  0.4391870900000000  0.4921694900000000
   0.2620491400000000  0.5608129100000000  0.9921694900000000
   0.7379508600000000  0.5608129100000000  0.5078305100000000
   0.2462288000000000  0.9258587200000000  0.5910770100000000
   0.7537712000000000  0.9258587200000000  0.9089229900000000
   0.7537712000000000  0.0741412800000000  0.4089229900000000
   0.2462288000000000  0.0741412800000000  0.0910770100000000
   0.0000000000000000  0.2338388500000000  0.7500000000000000
   0.0000000000000000  0.7661611500000001  0.2500000000000000
   0.5000000000000000  0.2992874800000000  0.2500000000000000
   0.5000000000000000  0.7007125199999999  0.7500000000000000