 Mg S
   1.0
    10.3272900599999993    0.0000000000000000    0.0000000000000000
     0.0000000000000000   10.3272900599999993    0.0000000000000000
     0.0000000000000000    0.0000000000000000   10.3272900599999993
 Mg S
  32  32
Direct
   0.0000000000000000  0.0000000000000000  0.0000000000000000
   0.5000000000000000  0.0000000000000000  0.0000000000000000
   0.0000000000000000  0.5000000000000000  0.0000000000000000
   0.5000000000000000  0.5000000000000000  0.0000000000000000
   0.0000000000000000  0.0000000000000000  0.5000000000000000
   0.5000000000000000  0.0000000000000000  0.5000000000000000
   0.0000000000000000  0.5000000000000000  0.5000000000000000
   0.5000000000000000  0.5000000000000000  0.5000000000000000
   0.0000000000000000  0.2500000000000000  0.2500000000000000
   0.5000000000000000  0.2500000000000000  0.2500000000000000
   0.0000000000000000  0.7500000000000000  0.2500000000000000
   0.5000000000000000  0.7500000000000000  0.2500000000000000
   0.0000000000000000  0.2500000000000000  0.7500000000000000
   0.5000000000000000  0.2500000000000000  0.7500000000000000
   0.0000000000000000  0.7500000000000000  0.7500000000000000
   0.5000000000000000  0.7500000000000000  0.7500000000000000
   0.2500000000000000  0.0000000000000000  0.2500000000000000
   0.7500000000000000  0.0000000000000000  0.2500000000000000
   0.2500000000000000  0.5000000000000000  0.2500000000000000
   0.7500000000000000  0.5000000000000000  0.2500000000000000
   0.2500000000000000  0.0000000000000000  0.7500000000000000
   0.7500000000000000  0.0000000000000000  0.7500000000000000
   0.2500000000000000  0.5000000000000000  0.7500000000000000
   0.7500000000000000  0.5000000000000000  0.7500000000000000
   0.2500000000000000  0.2500000000000000  0.0000000000000000
   0.7500000000000000  0.2500000000000000  0.0000000000000000
   0.2500000000000000  0.7500000000000000  0.0000000000000000
   0.7500000000000000  0.7500000000000000  0.0000000000000000
   0.2500000000000000  0.2500000000000000  0.5000000000000000
   0.7500000000000000  0.2500000000000000  0.5000000000000000
   0.2500000000000000  0.7500000000000000  0.5000000000000000
   0.7500000000000000  0.7500000000000000  0.5000000000000000
   0.2509683082339996  0.0000000000000000  0.0000000000000000
   0.7500000000000000  0.0000000000000000  0.0000000000000000
   0.2500000000000000  0.5000000000000000  0.0000000000000000
   0.7500000000000000  0.5000000000000000  0.0000000000000000
   0.2500000000000000  0.0000000000000000  0.5000000000000000
   0.7500000000000000  0.0000000000000000  0.5000000000000000
   0.2500000000000000  0.5000000000000000  0.5000000000000000
   0.7500000000000000  0.5000000000000000  0.5000000000000000
   0.2500000000000000  0.2500000000000000  0.2500000000000000
   0.7500000000000000  0.2500000000000000  0.2500000000000000
   0.2500000000000000  0.7500000000000000  0.2500000000000000
   0.7500000000000000  0.7500000000000000  0.2500000000000000
   0.2500000000000000  0.2500000000000000  0.7500000000000000
   0.7500000000000000  0.2500000000000000  0.7500000000000000
   0.2500000000000000  0.7500000000000000  0.7500000000000000
   0.7500000000000000  0.7500000000000000  0.7500000000000000
   0.0000000000000000  0.0000000000000000  0.2500000000000000
   0.5000000000000000  0.0000000000000000  0.2500000000000000
   0.0000000000000000  0.5000000000000000  0.2500000000000000
   0.5000000000000000  0.5000000000000000  0.2500000000000000
   0.0000000000000000  0.0000000000000000  0.7500000000000000
   0.5000000000000000  0.0000000000000000  0.7500000000000000
   0.0000000000000000  0.5000000000000000  0.7500000000000000
   0.5000000000000000  0.5000000000000000  0.7500000000000000
   0.0000000000000000  0.2500000000000000  0.0000000000000000
   0.5000000000000000  0.2500000000000000  0.0000000000000000
   0.0000000000000000  0.7500000000000000  0.0000000000000000
   0.5000000000000000  0.7500000000000000  0.0000000000000000
   0.0000000000000000  0.2500000000000000  0.5000000000000000
   0.5000000000000000  0.2500000000000000  0.5000000000000000
   0.0000000000000000  0.7500000000000000  0.5000000000000000
   0.5000000000000000  0.7500000000000000  0.5000000000000000