 Mg S
   1.0
     5.2152849082919266    0.0000000000000000    0.0000000000000000
     0.0000000000000000    5.2152849082919266    0.0000000000000000
     0.0000000000000000    0.0000000000000000    5.2152849082919266
 Mg S
   4   4
Direct
   0.0000000000000000  0.0000000000000000  0.0000000000000000
   0.0000000000000000  0.5000000000000000  0.5000000000000000
   0.5000000000000000  0.0000000000000000  0.5000000000000000
   0.5000000000000000  0.5000000000000000  0.0000000000000000
   0.5000000000000000  0.0000000000000000  0.0000000000000000
   0.5000000000000000  0.5000000000000000  0.5000000000000000
   0.0000000000000000  0.0000000000000000  0.5000000000000000
   0.0000000000000000  0.5000000000000000  0.0000000000000000