 O Te Ba
   1.0
     4.5399537099999998    0.0000000000000000    0.0310078200000000
     0.0000000000000000    5.9766746299999998    0.0000000000000000
    -2.0100594500000000    0.0000000000000000    6.7731919400000002
 O Te Ba
   6   2   2
Direct
   0.1766057300000000  0.4871963100000000  0.3253601000000000
   0.8233942700000000  0.9871963100000000  0.6746399000000001
   0.8233942700000000  0.5128036899999999  0.6746399000000001
   0.1766057300000000  0.0128036900000000  0.3253601000000000
   0.6413052299999999  0.2500000000000000  0.1058781200000000
   0.3586947700000000  0.7500000000000000  0.8941218800000000
   0.9281846499999999  0.7500000000000000  0.8567149199999999
   0.0718153500000000  0.2500000000000000  0.1432850800000000
   0.6637494500000001  0.7500000000000000  0.3140250000000000
   0.3362505500000000  0.2500000000000000  0.6859750000000000