 Mg S
   1.0
    10.3619456599999999    0.0000000000000000    0.0000000000000000
     0.0000000000000000   10.3619456599999999    0.0000000000000000
     0.0000000000000000    0.0000000000000000   10.3619456599999999
 Mg S
  32  32
Direct
   0.0000000000000000  0.0000000000000000  0.0000000000000000
   0.5000000000000000  0.0000000000000000  0.0000000000000000
   0.0000000000000000  0.5000000000000000  0.0000000000000000
   0.5000000000000000  0.5000000000000000  0.0000000000000000
   0.0000000000000000  0.0000000000000000  0.5000000000000000
   0.5000000000000000  0.0000000000000000  0.5000000000000000
   0.0000000000000000  0.5000000000000000  0.5000000000000000
   0.5000000000000000  0.5000000000000000  0.5000000000000000
   0.0000000000000000  0.2500000000000000  0.2500000000000000
   0.5000000000000000  0.2500000000000000  0.2500000000000000
   0.0000000000000000  0.7500000000000000  0.2500000000000000
   0.5000000000000000  0.7500000000000000  0.2500000000000000
   0.0000000000000000  0.2500000000000000  0.7500000000000000
   0.5000000000000000  0.2500000000000000  0.7500000000000000
   0.0000000000000000  0.7500000000000000  0.7500000000000000
   0.5000000000000000  0.7500000000000000  0.7500000000000000
   0.2500000000000000  0.0000000000000000  0.2500000000000000
   0.7500000000000000  0.0000000000000000  0.2500000000000000
   0.2500000000000000  0.5000000000000000  0.2500000000000000
   0.7500000000000000  0.5000000000000000  0.2500000000000000
   0.2500000000000000  0.0000000000000000  0.7500000000000000
   0.7500000000000000  0.0000000000000000  0.7500000000000000
   0.2500000000000000  0.5000000000000000  0.7500000000000000
   0.7500000000000000  0.5000000000000000  0.7500000000000000
   0.2500000000000000  0.2500000000000000  0.0000000000000000
   0.7500000000000000  0.2500000000000000  0.0000000000000000
   0.2500000000000000  0.7500000000000000  0.0000000000000000
   0.7500000000000000  0.7500000000000000  0.0000000000000000
   0.2500000000000000  0.2500000000000000  0.5000000000000000
   0.7500000000000000  0.2500000000000000  0.5000000000000000
   0.2500000000000000  0.7500000000000000  0.5000000000000000
   0.7500000000000000  0.7500000000000000  0.5000000000000000
   0.2509650697203135  0.0000000000000000  0.0000000000000000
   0.7500000000000000  0.0000000000000000  0.0000000000000000
   0.2500000000000000  0.5000000000000000  0.0000000000000000
   0.7500000000000000  0.5000000000000000  0.0000000000000000
   0.2500000000000000  0.0000000000000000  0.5000000000000000
   0.7500000000000000  0.0000000000000000  0.5000000000000000
   0.2500000000000000  0.5000000000000000  0.5000000000000000
   0.7500000000000000  0.5000000000000000  0.5000000000000000
   0.2500000000000000  0.2500000000000000  0.2500000000000000
   0.7500000000000000  0.2500000000000000  0.2500000000000000
   0.2500000000000000  0.7500000000000000  0.2500000000000000
   0.7500000000000000  0.7500000000000000  0.2500000000000000
   0.2500000000000000  0.2500000000000000  0.7500000000000000
   0.7500000000000000  0.2500000000000000  0.7500000000000000
   0.2500000000000000  0.7500000000000000  0.7500000000000000
   0.7500000000000000  0.7500000000000000  0.7500000000000000
   0.0000000000000000  0.0000000000000000  0.2500000000000000
   0.5000000000000000  0.0000000000000000  0.2500000000000000
   0.0000000000000000  0.5000000000000000  0.2500000000000000
   0.5000000000000000  0.5000000000000000  0.2500000000000000
   0.0000000000000000  0.0000000000000000  0.7500000000000000
   0.5000000000000000  0.0000000000000000  0.7500000000000000
   0.0000000000000000  0.5000000000000000  0.7500000000000000
   0.5000000000000000  0.5000000000000000  0.7500000000000000
   0.0000000000000000  0.2500000000000000  0.0000000000000000
   0.5000000000000000  0.2500000000000000  0.0000000000000000
   0.0000000000000000  0.7500000000000000  0.0000000000000000
   0.5000000000000000  0.7500000000000000  0.0000000000000000
   0.0000000000000000  0.2500000000000000  0.5000000000000000
   0.5000000000000000  0.2500000000000000  0.5000000000000000
   0.0000000000000000  0.7500000000000000  0.5000000000000000
   0.5000000000000000  0.7500000000000000  0.5000000000000000