Automatic mesh
0
Gamma
     3     3     3
 0.000 0.000 0.000
